Set parameter TokenServer to value "hpc-licenses.hpcc.usc.edu"
Set parameter TimeLimit to value 3600
Gurobi Optimizer version 9.5.1 build v9.5.1rc2 (linux64)
Thread count: 20 physical cores, 20 logical processors, using up to 20 threads
Optimize a model with 6007 rows, 4529 columns and 24534 nonzeros
Model fingerprint: 0xc05903df
Variable types: 4506 continuous, 23 integer (23 binary)
Coefficient statistics:
  Matrix range     [1e+00, 1e+00]
  Objective range  [8e-04, 1e+00]
  Bounds range     [1e+00, 1e+00]
  RHS range        [1e+00, 1e+02]
Found heuristic solution: objective 255.9581427
Presolve removed 1520 rows and 1515 columns
Presolve time: 0.06s
Presolved: 4487 rows, 3014 columns, 21975 nonzeros
Variable types: 2994 continuous, 20 integer (20 binary)

Root relaxation: objective 2.712882e+02, 2606 iterations, 0.11 seconds (0.11 work units)

    Nodes    |    Current Node    |     Objective Bounds      |     Work
 Expl Unexpl |  Obj  Depth IntInf | Incumbent    BestBd   Gap | It/Node Time

     0     0  271.28816    0    2  255.95814  271.28816  5.99%     -    0s
H    0     0                     260.5129373  271.28816  4.14%     -    0s
     0     0  271.23418    0    2  260.51294  271.23418  4.12%     -    0s
H    0     0                     263.5345274  271.12523  2.88%     -    0s
     0     0  271.12523    0    2  263.53453  271.12523  2.88%     -    0s
     0     0  270.71471    0    2  263.53453  270.71471  2.72%     -    0s
     0     0  270.63265    0    4  263.53453  270.63265  2.69%     -    0s
     0     0  270.28409    0    4  263.53453  270.28409  2.56%     -    0s
     0     0  270.28409    0    4  263.53453  270.28409  2.56%     -    0s
     0     0  270.28409    0    4  263.53453  270.28409  2.56%     -    0s
     0     0  270.28409    0    4  263.53453  270.28409  2.56%     -    0s
     0     0  270.26233    0    4  263.53453  270.26233  2.55%     -    0s
     0     0  270.26233    0    4  263.53453  270.26233  2.55%     -    0s
     0     0  270.26233    0    4  263.53453  270.26233  2.55%     -    0s
     0     0  270.24995    0    4  263.53453  270.24995  2.55%     -    0s
     0     0  270.21093    0    6  263.53453  270.21093  2.53%     -    0s
     0     0  270.19882    0    6  263.53453  270.19882  2.53%     -    0s
     0     0  270.18571    0    6  263.53453  270.18571  2.52%     -    0s
     0     0  270.17852    0    6  263.53453  270.17852  2.52%     -    0s
     0     0  270.16650    0    6  263.53453  270.16650  2.52%     -    0s
     0     0  270.11247    0    6  263.53453  270.11247  2.50%     -    0s
     0     0  270.11132    0    4  263.53453  270.11132  2.50%     -    0s
     0     0  270.11132    0    4  263.53453  270.11132  2.50%     -    0s
H    0     0                     269.4858419  270.11132  0.23%     -    0s
     0     0  270.11132    0    3  269.48584  270.11132  0.23%     -    0s
     0     0  270.11132    0    2  269.48584  270.11132  0.23%     -    1s
     0     0  270.11132    0    2  269.48584  270.11132  0.23%     -    1s
     0     0  270.11132    0    2  269.48584  270.11132  0.23%     -    1s
     0     0  270.11132    0    2  269.48584  270.11132  0.23%     -    1s
     0     0  270.11132    0    2  269.48584  270.11132  0.23%     -    1s
     0     0  270.11132    0    2  269.48584  270.11132  0.23%     -    1s
     0     0  270.11132    0    2  269.48584  270.11132  0.23%     -    1s
     0     0  270.11132    0    2  269.48584  270.11132  0.23%     -    1s
     0     0  270.11132    0    2  269.48584  270.11132  0.23%     -    1s
     0     0  270.11132    0    2  269.48584  270.11132  0.23%     -    1s
     0     0  270.11132    0    2  269.48584  270.11132  0.23%     -    1s
     0     0  270.11132    0    2  269.48584  270.11132  0.23%     -    1s
     0     0  270.11132    0    2  269.48584  270.11132  0.23%     -    1s
     0     0  270.11132    0    3  269.48584  270.11132  0.23%     -    1s
     0     0  270.11132    0    3  269.48584  270.11132  0.23%     -    2s
     0     0  270.11132    0    3  269.48584  270.11132  0.23%     -    2s
     0     0  270.11100    0    6  269.48584  270.11100  0.23%     -    2s
     0     0  270.11100    0    3  269.48584  270.11100  0.23%     -    2s
     0     0  270.03658    0    6  269.48584  270.03658  0.20%     -    2s
     0     0  269.87524    0    2  269.48584  269.87524  0.14%     -    2s

Cutting planes:
  Gomory: 2
  MIR: 192
  Flow cover: 92
  RLT: 6
  Relax-and-lift: 2

Explored 1 nodes (6396 simplex iterations) in 2.61 seconds (1.07 work units)
Thread count was 20 (of 20 available processors)

Solution count 4: 269.486 263.535 260.513 255.958 

Optimal solution found (tolerance 1.00e-04)
Best objective 2.694858418654e+02, best bound 2.694858418654e+02, gap 0.0000%



#########node  1
V1.7
#########node  2
0.14965986394557823,0.8503401360544218
#########node  3
1.0,0.0


Total Solving Time 3.050800085067749
obj value 269.4858418654499
Policy Regret train (Sum) 9.912030792665206
Best Treatment Found train (%) 57.599999999999994
treatment classification acc train (%) 35.6
Policy Regret test (Sum) 38.72832714295484
Best Treatment Found test (%) 81.04
treatment classification acc test (%) 35.17
